10J3M/DAT/10J3MULL-4.dat
10 3
33.6191 33.6191
49.8714 49.8714
2.8121 2.8121
4.2688 4.2688
8.4711 8.4711
9.0745 9.0745
39.7944 39.7944
33.3269 33.3269
30.1713 30.1713
3.2408 3.2408
71.5501