10J3M/SOL/10J3MULL-4.sol
solution status: optimal solution found
objective value:                              71.5501
x#1#2                                               1 	(obj:0)
x#2#3                               0.999997994842735 	(obj:0)
x#3#1                                               1 	(obj:0)
x#4#1                                               1 	(obj:0)
x#5#1                                               1 	(obj:0)
x#6#1                                               1 	(obj:0)
x#7#2                               0.455229881591379 	(obj:0)
x#7#3                               0.544770118408621 	(obj:0)
x#8#1                                0.40542324668661 	(obj:0)
x#8#2                                0.59457675331339 	(obj:0)
x#9#1                                               1 	(obj:0)
x#10#1                                              1 	(obj:0)
z                                             71.5501 	(obj:1)
